100
32
9
4
9
25
28
9
6
24
18
31
2
7
13
12
30
28
10
7
5
13
6
19
9
11
31
3
17
9
32
29
17
12
29
1
5
16
25
21
12
10
23
10
23
29
24
12
18
10
30
11
10
18
8
7
27
18
24
22
9
10
25
5
25
30
23
3
8
23
1
13
25
30
19
9
27
20
24
32
7
31
12
20
22
2
2
24
21
3
19
30
19
1
3
21
19
2
19
4
21
5